\ Model Master problem
\ LP format - for model browsing. Use MPS format to capture full model detail.
Minimize
  - 59.82011997000001 sa_0 - 59.82011997000001 sa_1 + 29.97 sa_2
   + 17.982 sa_3 - 59.82011997000001 sa_4 + 29.97 sa_5
   - 59.82011997000001 sa_6 + 26.973 sa_7 - 29.91003 sa_8 + 8.991 sa_9
   + 29.97 sa_10 - 29.91003 sa_11 - 44.86508098200001 sa_12
   - 59.82011997000001 sa_13 + 29.97 sa_14 - 29.91003 sa_15
   - 29.91003 sa_16 - 40.87508098000001 sa_17 - 17.928035991 sa_18
   + 0.03 sa_19 + 0.03 sa_20 + 0.03 sa_21 - 29.91003 sa_22 + 0.03 sa_23
   + 0.03 sa_24 + 8.991 sa_25 + 10.989 sa_26 - 8.97101 sa_27
   - 59.82011997000001 sa_34 - 59.82011997000001 sa_35
   - 59.82011997000001 sa_36 - 59.82011997000001 sa_37
   - 59.82011997000001 sa_38 - 59.82011997000001 sa_39
   - 59.82011997000001 sa_40 - 59.82011997000001 sa_41
   - 59.82011997000001 sa_42 - 59.82011997000001 sa_43
   - 59.82011997000001 sa_44 - 59.82011997000001 sa_45
   - 59.82011997000001 sa_46 - 59.82011997000001 sa_47
   - 59.82011997000001 sa_48 - 59.82011997000001 sa_49
   - 59.82011997000001 sa_50 - 59.82011997000001 sa_51
   - 59.82011997000001 sa_52 - 59.82011997000001 sa_53
   - 59.82011997000001 sa_54 - 59.82011997000001 sa_55
   - 59.82011997000001 sa_56 - 59.82011997000001 sa_57
   - 59.82011997000001 sa_58 - 59.82011997000001 sa_59
   - 59.82011997000001 sa_60 - 59.82011997000001 sa_61
   - 59.82011997000001 sa_62 - 59.82011997000001 sa_63
   - 59.82011997000001 sa_64 - 59.82011997000001 sa_65
   - 59.82011997000001 sa_66 - 59.82011997000001 sa_67
   - 59.82011997000001 sa_68 - 59.82011997000001 sa_69
   - 59.82011997000001 sa_70 - 59.82011997000001 sa_71
   - 59.82011997000001 sa_72 - 59.82011997000001 sa_73
   - 59.82011997000001 sa_74 - 59.82011997000001 sa_75
   - 59.82011997000001 sa_76 - 59.82011997000001 sa_77
   - 59.82011997000001 sa_78 - 59.82011997000001 sa_79
   - 59.82011997000001 sa_80 - 59.82011997000001 sa_81
   - 59.82011997000001 sa_82 - 59.82011997000001 sa_83
   - 59.82011997000001 sa_84 - 59.82011997000001 sa_85
   - 59.82011997000001 sa_86 - 59.82011997000001 sa_87
   - 59.82011997000001 sa_88 - 59.82011997000001 sa_89
   - 59.82011997000001 sa_90 - 59.82011997000001 sa_91
   - 59.82011997000001 sa_92 - 59.82011997000001 sa_93
   - 59.82011997000001 sa_94 - 59.82011997000001 sa_95
   - 59.82011997000001 sa_96 - 59.82011997000001 sa_97
   - 59.82011997000001 sa_98 - 59.82011997000001 sa_99
   - 59.82011997000001 sa_100 - 59.82011997000001 sa_101
   - 59.82011997000001 sa_102 - 59.82011997000001 sa_103
   - 59.82011997000001 sa_104 - 59.82011997000001 sa_105
   - 59.82011997000001 sa_106 - 59.82011997000001 sa_107
   - 59.82011997000001 sa_108 - 59.82011997000001 sa_109
   - 59.82011997000001 sa_110 - 59.82011997000001 sa_111
   - 59.82011997000001 sa_112 - 59.82011997000001 sa_113
   - 59.82011997000001 sa_114 - 59.82011997000001 sa_115
   - 59.82011997000001 sa_116 - 59.82011997000001 sa_117
   - 59.82011997000001 sa_118 - 59.82011997000001 sa_119
   - 59.82011997000001 sa_120 - 59.82011997000001 sa_121
   - 59.82011997000001 sa_122 - 59.82011997000001 sa_123
   - 59.82011997000001 sa_124 - 59.82011997000001 sa_125
   - 59.82011997000001 sa_126 - 59.82011997000001 sa_127
   - 59.82011997000001 sa_128 - 59.82011997000001 sa_129
   - 59.82011997000001 sa_130 - 59.82011997000001 sa_131
   - 59.82011997000001 sa_132 - 59.82011997000001 sa_133
   - 59.82011997000001 sa_134 - 59.82011997000001 sa_135
   - 59.82011997000001 sa_136 - 59.82011997000001 sa_137
   - 59.82011997000001 sa_138 - 59.82011997000001 sa_139
   - 59.82011997000001 sa_140 - 59.82011997000001 sa_141
   - 59.82011997000001 sa_142 - 59.82011997000001 sa_143
   - 59.82011997000001 sa_144 - 59.82011997000001 sa_145
   - 59.82011997000001 sa_146 - 59.82011997000001 sa_147
   - 59.82011997000001 sa_148 - 59.82011997000001 sa_149
   - 59.82011997000001 sa_150 - 59.82011997000001 sa_151
   - 59.82011997000001 sa_152 - 59.82011997000001 sa_153
   - 59.82011997000001 sa_154 - 59.82011997000001 sa_155
   - 59.82011997000001 sa_156 - 59.82011997000001 sa_157
   - 59.82011997000001 sa_158 - 59.82011997000001 sa_159
   - 59.82011997000001 sa_160 - 59.82011997000001 sa_161
   - 59.82011997000001 sa_162 - 59.82011997000001 sa_163
   - 59.82011997000001 sa_164 - 59.82011997000001 sa_165
   - 59.82011997000001 sa_166 - 59.82011997000001 sa_167
   - 59.82011997000001 sa_168 - 59.82011997000001 sa_169
   - 59.82011997000001 sa_170 - 59.82011997000001 sa_171
   - 59.82011997000001 sa_172 - 59.82011997000001 sa_173
   - 59.82011997000001 sa_174 - 59.82011997000001 sa_175
   - 59.82011997000001 sa_176 - 59.82011997000001 sa_177
   - 59.82011997000001 sa_178 - 59.82011997000001 sa_179
   - 59.82011997000001 sa_180 - 59.82011997000001 sa_181
   - 59.82011997000001 sa_182 - 59.82011997000001 sa_183
   - 59.82011997000001 sa_184 - 59.82011997000001 sa_185
   - 59.82011997000001 sa_186 - 59.82011997000001 sa_187
   - 59.82011997000001 sa_188 - 59.82011997000001 sa_189
   - 59.82011997000001 sa_190 - 59.82011997000001 sa_191
   - 59.82011997000001 sa_192 - 59.82011997000001 sa_193
   - 59.82011997000001 sa_194 - 59.82011997000001 sa_195
   - 59.82011997000001 sa_196 - 59.82011997000001 sa_197
   - 59.82011997000001 sa_198 - 59.82011997000001 sa_199
   - 59.82011997000001 sa_200 - 59.82011997000001 sa_201
   - 59.82011997000001 sa_202 - 59.82011997000001 sa_203
   - 59.82011997000001 sa_204 - 59.82011997000001 sa_205
   - 59.82011997000001 sa_206 - 59.82011997000001 sa_207
   - 59.82011997000001 sa_208 - 59.82011997000001 sa_209
   - 59.82011997000001 sa_210 - 59.82011997000001 sa_211
   - 59.82011997000001 sa_212 - 59.82011997000001 sa_213
   - 59.82011997000001 sa_214 - 59.82011997000001 sa_215
   - 59.82011997000001 sa_216 - 59.82011997000001 sa_217
   - 59.82011997000001 sa_218 - 59.82011997000001 sa_219
   - 59.82011997000001 sa_220 - 59.82011997000001 sa_221
   - 59.82011997000001 sa_222 - 59.82011997000001 sa_223
   - 59.82011997000001 sa_224 - 59.82011997000001 sa_225
   - 59.82011997000001 sa_226 - 59.82011997000001 sa_227
   - 59.82011997000001 sa_228 - 59.82011997000001 sa_229
   - 59.82011997000001 sa_230 - 59.82011997000001 sa_231
   - 59.82011997000001 sa_232 - 59.82011997000001 sa_233
   - 59.82011997000001 sa_234 - 59.82011997000001 sa_235
   - 59.82011997000001 sa_236 - 59.82011997000001 sa_237
   - 59.82011997000001 sa_238 - 59.82011997000001 sa_239
   - 59.82011997000001 sa_240 - 59.82011997000001 sa_241
   - 59.82011997000001 sa_242 - 59.82011997000001 sa_243
   - 59.82011997000001 sa_244 - 59.82011997000001 sa_245
   - 59.82011997000001 sa_246 - 59.82011997000001 sa_247
   - 59.82011997000001 sa_248 - 59.82011997000001 sa_249
   - 59.82011997000001 sa_250 - 59.82011997000001 sa_251
   - 59.82011997000001 sa_252 - 59.82011997000001 sa_253
Subject To
 con_beta_0: 0.001 sa_0 + 0.001 sa_1 + 0.001 sa_2 + 0.001 sa_3 + 0.001 sa_4
   + 0.001 sa_5 + 0.001 sa_6 + 0.001 sa_7 + 0.001 sa_8 + 0.001 sa_9
   + 0.001 sa_10 + 0.001 sa_11 + 0.001 sa_12 + 0.001 sa_13 + 0.001 sa_14
   + 0.001 sa_15 + 0.001 sa_16 + 0.001 sa_17 + 0.001 sa_18 + 0.001 sa_19
   + 0.001 sa_20 + 0.001 sa_21 + 0.001 sa_22 + 0.001 sa_23 + 0.001 sa_24
   + 0.001 sa_25 + 0.001 sa_26 + 0.001 sa_27 + 0.001 sa_28 + 0.001 sa_29
   + 0.001 sa_30 + 0.001 sa_31 + 0.001 sa_32 + 0.001 sa_34 + 0.001 sa_35
   + 0.001 sa_36 + 0.001 sa_37 + 0.001 sa_38 + 0.001 sa_39 + 0.001 sa_40
   + 0.001 sa_41 + 0.001 sa_42 + 0.001 sa_43 + 0.001 sa_44 + 0.001 sa_45
   + 0.001 sa_46 + 0.001 sa_47 + 0.001 sa_48 + 0.001 sa_49 + 0.001 sa_50
   + 0.001 sa_51 + 0.001 sa_52 + 0.001 sa_53 + 0.001 sa_54 + 0.001 sa_55
   + 0.001 sa_56 + 0.001 sa_57 + 0.001 sa_58 + 0.001 sa_59 + 0.001 sa_60
   + 0.001 sa_61 + 0.001 sa_62 + 0.001 sa_63 + 0.001 sa_64 + 0.001 sa_65
   + 0.001 sa_66 + 0.001 sa_67 + 0.001 sa_68 + 0.001 sa_69 + 0.001 sa_70
   + 0.001 sa_71 + 0.001 sa_72 + 0.001 sa_73 + 0.001 sa_74 + 0.001 sa_75
   + 0.001 sa_76 + 0.001 sa_77 + 0.001 sa_78 + 0.001 sa_79 + 0.001 sa_80
   + 0.001 sa_81 + 0.001 sa_82 + 0.001 sa_83 + 0.001 sa_84 + 0.001 sa_85
   + 0.001 sa_86 + 0.001 sa_87 + 0.001 sa_88 + 0.001 sa_89 + 0.001 sa_90
   + 0.001 sa_91 + 0.001 sa_92 + 0.001 sa_93 + 0.001 sa_94 + 0.001 sa_95
   + 0.001 sa_96 + 0.001 sa_97 + 0.001 sa_98 + 0.001 sa_99 + 0.001 sa_100
   + 0.001 sa_101 + 0.001 sa_102 + 0.001 sa_103 + 0.001 sa_104
   + 0.001 sa_105 + 0.001 sa_106 + 0.001 sa_107 + 0.001 sa_108
   + 0.001 sa_109 + 0.001 sa_110 + 0.001 sa_111 + 0.001 sa_112
   + 0.001 sa_113 + 0.001 sa_114 + 0.001 sa_115 + 0.001 sa_116
   + 0.001 sa_117 + 0.001 sa_118 + 0.001 sa_119 + 0.001 sa_120
   + 0.001 sa_121 + 0.001 sa_122 + 0.001 sa_123 + 0.001 sa_124
   + 0.001 sa_125 + 0.001 sa_126 + 0.001 sa_127 + 0.001 sa_128
   + 0.001 sa_129 + 0.001 sa_130 + 0.001 sa_131 + 0.001 sa_132
   + 0.001 sa_133 + 0.001 sa_134 + 0.001 sa_135 + 0.001 sa_136
   + 0.001 sa_137 + 0.001 sa_138 + 0.001 sa_139 + 0.001 sa_140
   + 0.001 sa_141 + 0.001 sa_142 + 0.001 sa_143 + 0.001 sa_144
   + 0.001 sa_145 + 0.001 sa_146 + 0.001 sa_147 + 0.001 sa_148
   + 0.001 sa_149 + 0.001 sa_150 + 0.001 sa_151 + 0.001 sa_152
   + 0.001 sa_153 + 0.001 sa_154 + 0.001 sa_155 + 0.001 sa_156
   + 0.001 sa_157 + 0.001 sa_158 + 0.001 sa_159 + 0.001 sa_160
   + 0.001 sa_161 + 0.001 sa_162 + 0.001 sa_163 + 0.001 sa_164
   + 0.001 sa_165 + 0.001 sa_166 + 0.001 sa_167 + 0.001 sa_168
   + 0.001 sa_169 + 0.001 sa_170 + 0.001 sa_171 + 0.001 sa_172
   + 0.001 sa_173 + 0.001 sa_174 + 0.001 sa_175 + 0.001 sa_176
   + 0.001 sa_177 + 0.001 sa_178 + 0.001 sa_179 + 0.001 sa_180
   + 0.001 sa_181 + 0.001 sa_182 + 0.001 sa_183 + 0.001 sa_184
   + 0.001 sa_185 + 0.001 sa_186 + 0.001 sa_187 + 0.001 sa_188
   + 0.001 sa_189 + 0.001 sa_190 + 0.001 sa_191 + 0.001 sa_192
   + 0.001 sa_193 + 0.001 sa_194 + 0.001 sa_195 + 0.001 sa_196
   + 0.001 sa_197 + 0.001 sa_198 + 0.001 sa_199 + 0.001 sa_200
   + 0.001 sa_201 + 0.001 sa_202 + 0.001 sa_203 + 0.001 sa_204
   + 0.001 sa_205 + 0.001 sa_206 + 0.001 sa_207 + 0.001 sa_208
   + 0.001 sa_209 + 0.001 sa_210 + 0.001 sa_211 + 0.001 sa_212
   + 0.001 sa_213 + 0.001 sa_214 + 0.001 sa_215 + 0.001 sa_216
   + 0.001 sa_217 + 0.001 sa_218 + 0.001 sa_219 + 0.001 sa_220
   + 0.001 sa_221 + 0.001 sa_222 + 0.001 sa_223 + 0.001 sa_224
   + 0.001 sa_225 + 0.001 sa_226 + 0.001 sa_227 + 0.001 sa_228
   + 0.001 sa_229 + 0.001 sa_230 + 0.001 sa_231 + 0.001 sa_232
   + 0.001 sa_233 + 0.001 sa_234 + 0.001 sa_235 + 0.001 sa_236
   + 0.001 sa_237 + 0.001 sa_238 + 0.001 sa_239 + 0.001 sa_240
   + 0.001 sa_241 + 0.001 sa_242 + 0.001 sa_243 + 0.001 sa_244
   + 0.001 sa_245 + 0.001 sa_246 + 0.001 sa_247 + 0.001 sa_248
   + 0.001 sa_249 + 0.001 sa_250 + 0.001 sa_251 + 0.001 sa_252
   + 0.001 sa_253 = 1
 con_beta_ul_nco[PPE1]: 60 sa_0 + 60 sa_1 + 60 sa_2 + 60 sa_3 + 60 sa_4
   + 60 sa_5 + 60 sa_6 + 60 sa_7 + 60 sa_8 + 60 sa_9 + 60 sa_10 + 60 sa_11
   + 60 sa_12 + 60 sa_13 + 60 sa_14 + 60 sa_15 + 60 sa_16 + 60 sa_17
   + 60 sa_18 + 60 sa_19 + 60 sa_20 + 60 sa_21 + 60 sa_22 + 60 sa_23
   + 60 sa_24 + 60 sa_25 + 60 sa_26 + 60 sa_27 + 60 sa_28 + 60 sa_29
   + 60 sa_30 + 60 sa_31 + 60 sa_32 + 60 sa_34 + 60 sa_35 + 60 sa_36
   + 60 sa_37 + 60 sa_38 + 60 sa_39 + 60 sa_40 + 60 sa_41 + 60 sa_42
   + 60 sa_43 + 60 sa_44 + 60 sa_45 + 60 sa_46 + 60 sa_47 + 60 sa_48
   + 60 sa_49 + 60 sa_50 + 60 sa_51 + 60 sa_52 + 60 sa_53 + 60 sa_54
   + 60 sa_55 + 60 sa_56 + 60 sa_57 + 60 sa_58 + 60 sa_59 + 60 sa_60
   + 60 sa_61 + 60 sa_62 + 60 sa_63 + 60 sa_64 + 60 sa_65 + 60 sa_66
   + 60 sa_67 + 60 sa_68 + 60 sa_69 + 60 sa_70 + 60 sa_71 + 60 sa_72
   + 60 sa_73 + 60 sa_74 + 60 sa_75 + 60 sa_76 + 60 sa_77 + 60 sa_78
   + 60 sa_79 + 60 sa_80 + 60 sa_81 + 60 sa_82 + 60 sa_83 + 60 sa_84
   + 60 sa_85 + 60 sa_86 + 60 sa_87 + 60 sa_88 + 60 sa_89 + 60 sa_90
   + 60 sa_91 + 60 sa_92 + 60 sa_93 + 60 sa_94 + 60 sa_95 + 60 sa_96
   + 60 sa_97 + 60 sa_98 + 60 sa_99 + 60 sa_100 + 60 sa_101 + 60 sa_102
   + 60 sa_103 + 60 sa_104 + 60 sa_105 + 60 sa_106 + 60 sa_107 + 60 sa_108
   + 60 sa_109 + 60 sa_110 + 60 sa_111 + 60 sa_112 + 60 sa_113 + 60 sa_114
   + 60 sa_115 + 60 sa_116 + 60 sa_117 + 60 sa_118 + 60 sa_119 + 60 sa_120
   + 60 sa_121 + 60 sa_122 + 60 sa_123 + 60 sa_124 + 60 sa_125 + 60 sa_126
   + 60 sa_127 + 60 sa_128 + 60 sa_129 + 60 sa_130 + 60 sa_131 + 60 sa_132
   + 60 sa_133 + 60 sa_134 + 60 sa_135 + 60 sa_136 + 60 sa_137 + 60 sa_138
   + 60 sa_139 + 60 sa_140 + 60 sa_141 + 60 sa_142 + 60 sa_143 + 60 sa_144
   + 60 sa_145 + 60 sa_146 + 60 sa_147 + 60 sa_148 + 60 sa_149 + 60 sa_150
   + 60 sa_151 + 60 sa_152 + 60 sa_153 + 60 sa_154 + 60 sa_155 + 60 sa_156
   + 60 sa_157 + 60 sa_158 + 60 sa_159 + 60 sa_160 + 60 sa_161 + 60 sa_162
   + 60 sa_163 + 60 sa_164 + 60 sa_165 + 60 sa_166 + 60 sa_167 + 60 sa_168
   + 60 sa_169 + 60 sa_170 + 60 sa_171 + 60 sa_172 + 60 sa_173 + 60 sa_174
   + 60 sa_175 + 60 sa_176 + 60 sa_177 + 60 sa_178 + 60 sa_179 + 60 sa_180
   + 60 sa_181 + 60 sa_182 + 60 sa_183 + 60 sa_184 + 60 sa_185 + 60 sa_186
   + 60 sa_187 + 60 sa_188 + 60 sa_189 + 60 sa_190 + 60 sa_191 + 60 sa_192
   + 60 sa_193 + 60 sa_194 + 60 sa_195 + 60 sa_196 + 60 sa_197 + 60 sa_198
   + 60 sa_199 + 60 sa_200 + 60 sa_201 + 60 sa_202 + 60 sa_203 + 60 sa_204
   + 60 sa_205 + 60 sa_206 + 60 sa_207 + 60 sa_208 + 60 sa_209 + 60 sa_210
   + 60 sa_211 + 60 sa_212 + 60 sa_213 + 60 sa_214 + 60 sa_215 + 60 sa_216
   + 60 sa_217 + 60 sa_218 + 60 sa_219 + 60 sa_220 + 60 sa_221 + 60 sa_222
   + 60 sa_223 + 60 sa_224 + 60 sa_225 + 60 sa_226 + 60 sa_227 + 60 sa_228
   + 60 sa_229 + 60 sa_230 + 60 sa_231 + 60 sa_232 + 60 sa_233 + 60 sa_234
   + 60 sa_235 + 60 sa_236 + 60 sa_237 + 60 sa_238 + 60 sa_239 + 60 sa_240
   + 60 sa_241 + 60 sa_242 + 60 sa_243 + 60 sa_244 + 60 sa_245 + 60 sa_246
   + 60 sa_247 + 60 sa_248 + 60 sa_249 + 60 sa_250 + 60 sa_251 + 60 sa_252
   + 60 sa_253 >= 0
 con_beta_pw_0dkc[0,C1,P1,CPU1]: - 8.991 sa_0 - 8.991 sa_1 - 8.991 sa_2
   + 9.009 sa_3 - 8.991 sa_4 + 21.009 sa_5 - 8.991 sa_6 - 8.991 sa_7
   - 8.991 sa_8 - 8.991 sa_9 - 8.991 sa_10 - 8.991 sa_11 - 8.991 sa_12
   - 8.991 sa_13 - 8.991 sa_14 - 8.991 sa_15 - 8.991 sa_16 - 8.991 sa_17
   - 8.991 sa_18 - 8.991 sa_19 - 8.991 sa_20 - 8.991 sa_21 - 8.991 sa_22
   - 8.991 sa_23 - 8.991 sa_24 - 8.991 sa_25 - 8.991 sa_26 - 8.991 sa_27
   - 8.991 sa_28 - 8.991 sa_29 - 8.991 sa_30 - 8.991 sa_31 - 8.991 sa_32
   - 8.991 sa_34 - 8.991 sa_35 - 8.991 sa_36 - 8.991 sa_37 - 8.991 sa_38
   - 8.991 sa_39 - 8.991 sa_40 - 8.991 sa_41 - 8.991 sa_42 - 8.991 sa_43
   - 8.991 sa_44 - 8.991 sa_45 - 8.991 sa_46 - 8.991 sa_47 - 8.991 sa_48
   - 8.991 sa_49 - 8.991 sa_50 - 8.991 sa_51 - 8.991 sa_52 - 8.991 sa_53
   - 8.991 sa_54 - 8.991 sa_55 - 8.991 sa_56 - 8.991 sa_57 - 8.991 sa_58
   - 8.991 sa_59 - 8.991 sa_60 - 8.991 sa_61 - 8.991 sa_62 - 8.991 sa_63
   - 8.991 sa_64 - 8.991 sa_65 - 8.991 sa_66 - 8.991 sa_67 - 8.991 sa_68
   - 8.991 sa_69 - 8.991 sa_70 - 8.991 sa_71 - 8.991 sa_72 - 8.991 sa_73
   - 8.991 sa_74 - 8.991 sa_75 - 8.991 sa_76 - 8.991 sa_77 - 8.991 sa_78
   - 8.991 sa_79 - 8.991 sa_80 - 8.991 sa_81 - 8.991 sa_82 - 8.991 sa_83
   - 8.991 sa_84 - 8.991 sa_85 - 8.991 sa_86 - 8.991 sa_87 - 8.991 sa_88
   - 8.991 sa_89 - 8.991 sa_90 - 8.991 sa_91 - 8.991 sa_92 - 8.991 sa_93
   - 8.991 sa_94 - 8.991 sa_95 - 8.991 sa_96 - 8.991 sa_97 - 8.991 sa_98
   - 8.991 sa_99 - 8.991 sa_100 - 8.991 sa_101 - 8.991 sa_102
   - 8.991 sa_103 - 8.991 sa_104 - 8.991 sa_105 - 8.991 sa_106
   - 8.991 sa_107 - 8.991 sa_108 - 8.991 sa_109 - 8.991 sa_110
   - 8.991 sa_111 - 8.991 sa_112 - 8.991 sa_113 - 8.991 sa_114
   - 8.991 sa_115 - 8.991 sa_116 - 8.991 sa_117 - 8.991 sa_118
   - 8.991 sa_119 - 8.991 sa_120 - 8.991 sa_121 - 8.991 sa_122
   - 8.991 sa_123 - 8.991 sa_124 - 8.991 sa_125 - 8.991 sa_126
   - 8.991 sa_127 - 8.991 sa_128 - 8.991 sa_129 - 8.991 sa_130
   - 8.991 sa_131 - 8.991 sa_132 - 8.991 sa_133 - 8.991 sa_134
   - 8.991 sa_135 - 8.991 sa_136 - 8.991 sa_137 - 8.991 sa_138
   - 8.991 sa_139 - 8.991 sa_140 - 8.991 sa_141 - 8.991 sa_142
   - 8.991 sa_143 - 8.991 sa_144 - 8.991 sa_145 - 8.991 sa_146
   - 8.991 sa_147 - 8.991 sa_148 - 8.991 sa_149 - 8.991 sa_150
   - 8.991 sa_151 - 8.991 sa_152 - 8.991 sa_153 - 8.991 sa_154
   - 8.991 sa_155 - 8.991 sa_156 - 8.991 sa_157 - 8.991 sa_158
   - 8.991 sa_159 - 8.991 sa_160 - 8.991 sa_161 - 8.991 sa_162
   - 8.991 sa_163 - 8.991 sa_164 - 8.991 sa_165 - 8.991 sa_166
   - 8.991 sa_167 - 8.991 sa_168 - 8.991 sa_169 - 8.991 sa_170
   - 8.991 sa_171 - 8.991 sa_172 - 8.991 sa_173 - 8.991 sa_174
   - 8.991 sa_175 - 8.991 sa_176 - 8.991 sa_177 - 8.991 sa_178
   - 8.991 sa_179 - 8.991 sa_180 - 8.991 sa_181 - 8.991 sa_182
   - 8.991 sa_183 - 8.991 sa_184 - 8.991 sa_185 - 8.991 sa_186
   - 8.991 sa_187 - 8.991 sa_188 - 8.991 sa_189 - 8.991 sa_190
   - 8.991 sa_191 - 8.991 sa_192 - 8.991 sa_193 - 8.991 sa_194
   - 8.991 sa_195 - 8.991 sa_196 - 8.991 sa_197 - 8.991 sa_198
   - 8.991 sa_199 - 8.991 sa_200 - 8.991 sa_201 - 8.991 sa_202
   - 8.991 sa_203 - 8.991 sa_204 - 8.991 sa_205 - 8.991 sa_206
   - 8.991 sa_207 - 8.991 sa_208 - 8.991 sa_209 - 8.991 sa_210
   - 8.991 sa_211 - 8.991 sa_212 - 8.991 sa_213 - 8.991 sa_214
   - 8.991 sa_215 - 8.991 sa_216 - 8.991 sa_217 - 8.991 sa_218
   - 8.991 sa_219 - 8.991 sa_220 - 8.991 sa_221 - 8.991 sa_222
   - 8.991 sa_223 - 8.991 sa_224 - 8.991 sa_225 - 8.991 sa_226
   - 8.991 sa_227 - 8.991 sa_228 - 8.991 sa_229 - 8.991 sa_230
   - 8.991 sa_231 - 8.991 sa_232 - 8.991 sa_233 - 8.991 sa_234
   - 8.991 sa_235 - 8.991 sa_236 - 8.991 sa_237 - 8.991 sa_238
   - 8.991 sa_239 - 8.991 sa_240 - 8.991 sa_241 - 8.991 sa_242
   - 8.991 sa_243 - 8.991 sa_244 - 8.991 sa_245 - 8.991 sa_246
   - 8.991 sa_247 - 8.991 sa_248 - 8.991 sa_249 - 8.991 sa_250
   - 8.991 sa_251 - 8.991 sa_252 - 8.991 sa_253 >= 10
 con_beta_pw_0dkc[0,C2,P1,CPU1]: >= 0
 con_beta_pw_1TLdkc[1,C1,P1,CPU1]: 30 sa_2 >= 5
 con_beta_pw_1TLdkc[1,C2,P1,CPU1]: >= 0
 con_beta_pw_TLMdkc[2,C1,P1,CPU1]: 30 sa_14 >= 2.5
 con_beta_pw_TLMdkc[2,C2,P1,CPU1]: >= 0
 con_beta_pw_TLMdkc[3,C1,P1,CPU1]: 30 sa_10 >= 1.25
 con_beta_pw_TLMdkc[3,C2,P1,CPU1]: 9 sa_25 + 10 sa_26 >= 1.25
 con_beta_pw_Mdkc[4,C1,P1,CPU1]: 18 sa_7 >= 0.625
 con_beta_pw_Mdkc[4,C2,P1,CPU1]: 9 sa_7 + 9 sa_9 + sa_26 + sa_27 >= 0.625
 con_beta_ps_t0dkc[1,0,C1,P1,CPU1]: 18 sa_9 + 30 sa_31 >= 5
 con_beta_ps_t0dkc[1,0,C2,P1,CPU1]: >= 0
 con_beta_ps_t0dkc[2,0,C1,P1,CPU1]: 10 sa_21 + 10 sa_22 + 10 sa_23
   + 10 sa_24 + 10 sa_25 + 10 sa_26 + 10 sa_27 + 10 sa_29 >= 2.5
 con_beta_ps_t0dkc[2,0,C2,P1,CPU1]: >= 0
 con_beta_ps_t0dkc[3,0,C1,P1,CPU1]: 30 sa_22 >= 1.25
 con_beta_ps_t0dkc[3,0,C2,P1,CPU1]: >= 0
 con_beta_ps_t1TLdkc[1,1,C1,P1,CPU1]: - 9.99 sa_21 - 9.99 sa_22
   - 9.99 sa_23 - 9.99 sa_24 + 8.01 sa_25 - 7.99 sa_26 - 7.99 sa_27
   - 9.99 sa_29 + 30 sa_32 >= 2.5
 con_beta_ps_t1TLdkc[1,1,C2,P1,CPU1]: >= 0
 con_beta_ps_t1TLdkc[2,1,C1,P1,CPU1]: 30 sa_20 + 30 sa_21 + 10 sa_34
   + 10 sa_35 + 10 sa_36 + 10 sa_37 + 10 sa_38 + 10 sa_39 + 10 sa_40
   + 10 sa_41 + 10 sa_42 + 10 sa_43 + 10 sa_44 + 10 sa_45 + 10 sa_46
   + 10 sa_47 + 10 sa_48 + 10 sa_49 + 10 sa_50 + 10 sa_51 + 10 sa_52
   + 10 sa_53 + 10 sa_54 + 10 sa_55 + 10 sa_56 + 10 sa_57 + 10 sa_58
   + 10 sa_59 + 10 sa_60 + 10 sa_61 + 10 sa_62 + 10 sa_63 + 10 sa_64
   + 10 sa_65 + 10 sa_66 + 10 sa_67 + 10 sa_68 + 10 sa_69 + 10 sa_70
   + 10 sa_71 + 10 sa_72 + 10 sa_73 + 10 sa_74 + 10 sa_75 + 10 sa_76
   + 10 sa_77 + 10 sa_78 + 10 sa_79 + 10 sa_80 + 10 sa_81 + 10 sa_82
   + 10 sa_83 + 10 sa_84 + 10 sa_85 + 10 sa_86 + 10 sa_87 + 10 sa_88
   + 10 sa_89 + 10 sa_90 + 10 sa_91 + 10 sa_92 + 10 sa_93 + 10 sa_94
   + 10 sa_95 + 10 sa_96 + 10 sa_97 + 10 sa_98 + 10 sa_99 + 10 sa_100
   + 10 sa_101 + 10 sa_102 + 10 sa_103 + 10 sa_104 + 10 sa_105 + 10 sa_106
   + 10 sa_107 + 10 sa_108 + 10 sa_109 + 10 sa_110 + 10 sa_111 + 10 sa_112
   + 10 sa_113 + 10 sa_114 + 10 sa_115 + 10 sa_116 + 10 sa_117 + 10 sa_118
   + 10 sa_119 + 10 sa_120 + 10 sa_121 + 10 sa_122 + 10 sa_123 + 10 sa_124
   + 10 sa_125 + 10 sa_126 + 10 sa_127 + 10 sa_128 + 10 sa_129 + 10 sa_130
   + 10 sa_131 + 10 sa_132 + 10 sa_133 + 10 sa_134 + 10 sa_135 + 10 sa_136
   + 10 sa_137 + 10 sa_138 + 10 sa_139 + 10 sa_140 + 10 sa_141 + 10 sa_142
   + 10 sa_143 + 10 sa_144 + 10 sa_145 + 10 sa_146 + 10 sa_147 + 10 sa_148
   + 10 sa_149 + 10 sa_150 + 10 sa_151 + 10 sa_152 + 10 sa_153 + 10 sa_154
   + 10 sa_155 + 10 sa_156 + 10 sa_157 + 10 sa_158 + 10 sa_159 + 10 sa_160
   + 10 sa_161 + 10 sa_162 + 10 sa_163 + 10 sa_164 + 10 sa_165 + 10 sa_166
   + 10 sa_167 + 10 sa_168 + 10 sa_169 + 10 sa_170 + 10 sa_171 + 10 sa_172
   + 10 sa_173 + 10 sa_174 + 10 sa_175 + 10 sa_176 + 10 sa_177 + 10 sa_178
   + 10 sa_179 + 10 sa_180 + 10 sa_181 + 10 sa_182 + 10 sa_183 + 10 sa_184
   + 10 sa_185 + 10 sa_186 + 10 sa_187 + 10 sa_188 + 10 sa_189 + 10 sa_190
   + 10 sa_191 + 10 sa_192 + 10 sa_193 + 10 sa_194 + 10 sa_195 + 10 sa_196
   + 10 sa_197 + 10 sa_198 + 10 sa_199 + 10 sa_200 + 10 sa_201 + 10 sa_202
   + 10 sa_203 + 10 sa_204 + 10 sa_205 + 10 sa_206 + 10 sa_207 + 10 sa_208
   + 10 sa_209 + 10 sa_210 + 10 sa_211 + 10 sa_212 + 10 sa_213 + 10 sa_214
   + 10 sa_215 + 10 sa_216 + 10 sa_217 + 10 sa_218 + 10 sa_219 + 10 sa_220
   + 10 sa_221 + 10 sa_222 + 10 sa_223 + 10 sa_224 + 10 sa_225 + 10 sa_226
   + 10 sa_227 + 10 sa_228 + 10 sa_229 + 10 sa_230 + 10 sa_231 + 10 sa_232
   + 10 sa_233 + 10 sa_234 + 10 sa_235 + 10 sa_236 + 10 sa_237 + 10 sa_238
   + 10 sa_239 + 10 sa_240 + 10 sa_241 + 10 sa_242 + 10 sa_243 + 10 sa_244
   + 10 sa_245 + 10 sa_246 + 10 sa_247 + 10 sa_248 + 10 sa_249 + 10 sa_250
   + 10 sa_251 + 10 sa_252 + 10 sa_253 >= 1.25
 con_beta_ps_t1TLdkc[2,1,C2,P1,CPU1]: >= 0
 con_beta_ps_t1TLdkc[3,1,C1,P1,CPU1]: 30 sa_15 >= 0.625
 con_beta_ps_t1TLdkc[3,1,C2,P1,CPU1]: >= 0
 con_beta_ps_tTLMdkc[1,2,C1,P1,CPU1]: 18 sa_28 - 8.991 sa_34 - 8.991 sa_35
   - 8.991 sa_36 - 8.991 sa_37 - 8.991 sa_38 - 8.991 sa_39 - 8.991 sa_40
   - 8.991 sa_41 - 8.991 sa_42 - 8.991 sa_43 - 8.991 sa_44 - 8.991 sa_45
   - 8.991 sa_46 - 8.991 sa_47 - 8.991 sa_48 - 8.991 sa_49 - 8.991 sa_50
   - 8.991 sa_51 - 8.991 sa_52 - 8.991 sa_53 - 8.991 sa_54 - 8.991 sa_55
   - 8.991 sa_56 - 8.991 sa_57 - 8.991 sa_58 - 8.991 sa_59 - 8.991 sa_60
   - 8.991 sa_61 - 8.991 sa_62 - 8.991 sa_63 - 8.991 sa_64 - 8.991 sa_65
   - 8.991 sa_66 - 8.991 sa_67 - 8.991 sa_68 - 8.991 sa_69 - 8.991 sa_70
   - 8.991 sa_71 - 8.991 sa_72 - 8.991 sa_73 - 8.991 sa_74 - 8.991 sa_75
   - 8.991 sa_76 - 8.991 sa_77 - 8.991 sa_78 - 8.991 sa_79 - 8.991 sa_80
   - 8.991 sa_81 - 8.991 sa_82 - 8.991 sa_83 - 8.991 sa_84 - 8.991 sa_85
   - 8.991 sa_86 - 8.991 sa_87 - 8.991 sa_88 - 8.991 sa_89 - 8.991 sa_90
   - 8.991 sa_91 - 8.991 sa_92 - 8.991 sa_93 - 8.991 sa_94 - 8.991 sa_95
   - 8.991 sa_96 - 8.991 sa_97 - 8.991 sa_98 - 8.991 sa_99 - 8.991 sa_100
   - 8.991 sa_101 - 8.991 sa_102 - 8.991 sa_103 - 8.991 sa_104
   - 8.991 sa_105 - 8.991 sa_106 - 8.991 sa_107 - 8.991 sa_108
   - 8.991 sa_109 - 8.991 sa_110 - 8.991 sa_111 - 8.991 sa_112
   - 8.991 sa_113 - 8.991 sa_114 - 8.991 sa_115 - 8.991 sa_116
   - 8.991 sa_117 - 8.991 sa_118 - 8.991 sa_119 - 8.991 sa_120
   - 8.991 sa_121 - 8.991 sa_122 - 8.991 sa_123 - 8.991 sa_124
   - 8.991 sa_125 - 8.991 sa_126 - 8.991 sa_127 - 8.991 sa_128
   - 8.991 sa_129 - 8.991 sa_130 - 8.991 sa_131 - 8.991 sa_132
   - 8.991 sa_133 - 8.991 sa_134 - 8.991 sa_135 - 8.991 sa_136
   - 8.991 sa_137 - 8.991 sa_138 - 8.991 sa_139 - 8.991 sa_140
   - 8.991 sa_141 - 8.991 sa_142 - 8.991 sa_143 - 8.991 sa_144
   - 8.991 sa_145 - 8.991 sa_146 - 8.991 sa_147 - 8.991 sa_148
   - 8.991 sa_149 - 8.991 sa_150 - 8.991 sa_151 - 8.991 sa_152
   - 8.991 sa_153 - 8.991 sa_154 - 8.991 sa_155 - 8.991 sa_156
   - 8.991 sa_157 - 8.991 sa_158 - 8.991 sa_159 - 8.991 sa_160
   - 8.991 sa_161 - 8.991 sa_162 - 8.991 sa_163 - 8.991 sa_164
   - 8.991 sa_165 - 8.991 sa_166 - 8.991 sa_167 - 8.991 sa_168
   - 8.991 sa_169 - 8.991 sa_170 - 8.991 sa_171 - 8.991 sa_172
   - 8.991 sa_173 - 8.991 sa_174 - 8.991 sa_175 - 8.991 sa_176
   - 8.991 sa_177 - 8.991 sa_178 - 8.991 sa_179 - 8.991 sa_180
   - 8.991 sa_181 - 8.991 sa_182 - 8.991 sa_183 - 8.991 sa_184
   - 8.991 sa_185 - 8.991 sa_186 - 8.991 sa_187 - 8.991 sa_188
   - 8.991 sa_189 - 8.991 sa_190 - 8.991 sa_191 - 8.991 sa_192
   - 8.991 sa_193 - 8.991 sa_194 - 8.991 sa_195 - 8.991 sa_196
   - 8.991 sa_197 - 8.991 sa_198 - 8.991 sa_199 - 8.991 sa_200
   - 8.991 sa_201 - 8.991 sa_202 - 8.991 sa_203 - 8.991 sa_204
   - 8.991 sa_205 - 8.991 sa_206 - 8.991 sa_207 - 8.991 sa_208
   - 8.991 sa_209 - 8.991 sa_210 - 8.991 sa_211 - 8.991 sa_212
   - 8.991 sa_213 - 8.991 sa_214 - 8.991 sa_215 - 8.991 sa_216
   - 8.991 sa_217 - 8.991 sa_218 - 8.991 sa_219 - 8.991 sa_220
   - 8.991 sa_221 - 8.991 sa_222 - 8.991 sa_223 - 8.991 sa_224
   - 8.991 sa_225 - 8.991 sa_226 - 8.991 sa_227 - 8.991 sa_228
   - 8.991 sa_229 - 8.991 sa_230 - 8.991 sa_231 - 8.991 sa_232
   - 8.991 sa_233 - 8.991 sa_234 - 8.991 sa_235 - 8.991 sa_236
   - 8.991 sa_237 - 8.991 sa_238 - 8.991 sa_239 - 8.991 sa_240
   - 8.991 sa_241 - 8.991 sa_242 - 8.991 sa_243 - 8.991 sa_244
   - 8.991 sa_245 - 8.991 sa_246 - 8.991 sa_247 - 8.991 sa_248
   - 8.991 sa_249 - 8.991 sa_250 - 8.991 sa_251 - 8.991 sa_252
   - 8.991 sa_253 >= 1.25
 con_beta_ps_tTLMdkc[1,2,C2,P1,CPU1]: - 0.999 sa_34 - 0.999 sa_35
   - 0.999 sa_36 - 0.999 sa_37 - 0.999 sa_38 - 0.999 sa_39 - 0.999 sa_40
   - 0.999 sa_41 - 0.999 sa_42 - 0.999 sa_43 - 0.999 sa_44 - 0.999 sa_45
   - 0.999 sa_46 - 0.999 sa_47 - 0.999 sa_48 - 0.999 sa_49 - 0.999 sa_50
   - 0.999 sa_51 - 0.999 sa_52 - 0.999 sa_53 - 0.999 sa_54 - 0.999 sa_55
   - 0.999 sa_56 - 0.999 sa_57 - 0.999 sa_58 - 0.999 sa_59 - 0.999 sa_60
   - 0.999 sa_61 - 0.999 sa_62 - 0.999 sa_63 - 0.999 sa_64 - 0.999 sa_65
   - 0.999 sa_66 - 0.999 sa_67 - 0.999 sa_68 - 0.999 sa_69 - 0.999 sa_70
   - 0.999 sa_71 - 0.999 sa_72 - 0.999 sa_73 - 0.999 sa_74 - 0.999 sa_75
   - 0.999 sa_76 - 0.999 sa_77 - 0.999 sa_78 - 0.999 sa_79 - 0.999 sa_80
   - 0.999 sa_81 - 0.999 sa_82 - 0.999 sa_83 - 0.999 sa_84 - 0.999 sa_85
   - 0.999 sa_86 - 0.999 sa_87 - 0.999 sa_88 - 0.999 sa_89 - 0.999 sa_90
   - 0.999 sa_91 - 0.999 sa_92 - 0.999 sa_93 - 0.999 sa_94 - 0.999 sa_95
   - 0.999 sa_96 - 0.999 sa_97 - 0.999 sa_98 - 0.999 sa_99 - 0.999 sa_100
   - 0.999 sa_101 - 0.999 sa_102 - 0.999 sa_103 - 0.999 sa_104
   - 0.999 sa_105 - 0.999 sa_106 - 0.999 sa_107 - 0.999 sa_108
   - 0.999 sa_109 - 0.999 sa_110 - 0.999 sa_111 - 0.999 sa_112
   - 0.999 sa_113 - 0.999 sa_114 - 0.999 sa_115 - 0.999 sa_116
   - 0.999 sa_117 - 0.999 sa_118 - 0.999 sa_119 - 0.999 sa_120
   - 0.999 sa_121 - 0.999 sa_122 - 0.999 sa_123 - 0.999 sa_124
   - 0.999 sa_125 - 0.999 sa_126 - 0.999 sa_127 - 0.999 sa_128
   - 0.999 sa_129 - 0.999 sa_130 - 0.999 sa_131 - 0.999 sa_132
   - 0.999 sa_133 - 0.999 sa_134 - 0.999 sa_135 - 0.999 sa_136
   - 0.999 sa_137 - 0.999 sa_138 - 0.999 sa_139 - 0.999 sa_140
   - 0.999 sa_141 - 0.999 sa_142 - 0.999 sa_143 - 0.999 sa_144
   - 0.999 sa_145 - 0.999 sa_146 - 0.999 sa_147 - 0.999 sa_148
   - 0.999 sa_149 - 0.999 sa_150 - 0.999 sa_151 - 0.999 sa_152
   - 0.999 sa_153 - 0.999 sa_154 - 0.999 sa_155 - 0.999 sa_156
   - 0.999 sa_157 - 0.999 sa_158 - 0.999 sa_159 - 0.999 sa_160
   - 0.999 sa_161 - 0.999 sa_162 - 0.999 sa_163 - 0.999 sa_164
   - 0.999 sa_165 - 0.999 sa_166 - 0.999 sa_167 - 0.999 sa_168
   - 0.999 sa_169 - 0.999 sa_170 - 0.999 sa_171 - 0.999 sa_172
   - 0.999 sa_173 - 0.999 sa_174 - 0.999 sa_175 - 0.999 sa_176
   - 0.999 sa_177 - 0.999 sa_178 - 0.999 sa_179 - 0.999 sa_180
   - 0.999 sa_181 - 0.999 sa_182 - 0.999 sa_183 - 0.999 sa_184
   - 0.999 sa_185 - 0.999 sa_186 - 0.999 sa_187 - 0.999 sa_188
   - 0.999 sa_189 - 0.999 sa_190 - 0.999 sa_191 - 0.999 sa_192
   - 0.999 sa_193 - 0.999 sa_194 - 0.999 sa_195 - 0.999 sa_196
   - 0.999 sa_197 - 0.999 sa_198 - 0.999 sa_199 - 0.999 sa_200
   - 0.999 sa_201 - 0.999 sa_202 - 0.999 sa_203 - 0.999 sa_204
   - 0.999 sa_205 - 0.999 sa_206 - 0.999 sa_207 - 0.999 sa_208
   - 0.999 sa_209 - 0.999 sa_210 - 0.999 sa_211 - 0.999 sa_212
   - 0.999 sa_213 - 0.999 sa_214 - 0.999 sa_215 - 0.999 sa_216
   - 0.999 sa_217 - 0.999 sa_218 - 0.999 sa_219 - 0.999 sa_220
   - 0.999 sa_221 - 0.999 sa_222 - 0.999 sa_223 - 0.999 sa_224
   - 0.999 sa_225 - 0.999 sa_226 - 0.999 sa_227 - 0.999 sa_228
   - 0.999 sa_229 - 0.999 sa_230 - 0.999 sa_231 - 0.999 sa_232
   - 0.999 sa_233 - 0.999 sa_234 - 0.999 sa_235 - 0.999 sa_236
   - 0.999 sa_237 - 0.999 sa_238 - 0.999 sa_239 - 0.999 sa_240
   - 0.999 sa_241 - 0.999 sa_242 - 0.999 sa_243 - 0.999 sa_244
   - 0.999 sa_245 - 0.999 sa_246 - 0.999 sa_247 - 0.999 sa_248
   - 0.999 sa_249 - 0.999 sa_250 - 0.999 sa_251 - 0.999 sa_252
   - 0.999 sa_253 >= 0
 con_beta_ps_tTLMdkc[1,3,C1,P1,CPU1]: 30 sa_30 >= 0.625
 con_beta_ps_tTLMdkc[1,3,C2,P1,CPU1]: 9 sa_3 >= 0.625
 con_beta_ps_tTLMdkc[2,2,C1,P1,CPU1]: 30 sa_23 >= 0.625
 con_beta_ps_tTLMdkc[2,2,C2,P1,CPU1]: >= 0
 con_beta_ps_tTLMdkc[2,3,C1,P1,CPU1]: 2 sa_17 + 18 sa_18 + 30 sa_24
   >= 0.3125
 con_beta_ps_tTLMdkc[2,3,C2,P1,CPU1]: 7 sa_1 >= 0.3125
 con_beta_ps_tTLMdkc[3,2,C1,P1,CPU1]: 30 sa_8 >= 0.3125
 con_beta_ps_tTLMdkc[3,2,C2,P1,CPU1]: >= 0
 con_beta_ps_tTLMdkc[3,3,C1,P1,CPU1]: 30 sa_16 >= 0.15625
 con_beta_ps_tTLMdkc[3,3,C2,P1,CPU1]: 9 sa_12 + sa_17 >= 0.15625
 con_beta_ps_tMdkc[1,4,C1,P1,CPU1]: 30 sa_29 >= 0.3125
 con_beta_ps_tMdkc[1,4,C2,P1,CPU1]: - 6.993 sa_1 - 6.993 sa_11
   - 6.993 sa_12 - 6.993 sa_13 + 10 sa_26 + 10 sa_27 + 9 sa_28 >= 0.3125
 con_beta_ps_tMdkc[2,4,C1,P1,CPU1]: 30 sa_19 >= 0.15625
 con_beta_ps_tMdkc[2,4,C2,P1,CPU1]: 7 sa_11 + 7 sa_12 + 7 sa_13 >= 0.15625
 con_beta_ps_tMdkc[3,4,C1,P1,CPU1]: 30 sa_11 >= 0.078125
 con_beta_ps_tMdkc[3,4,C2,P1,CPU1]: 10 sa_27 >= 0.078125
 con_beta_ps_Tmdkc[4,0,C1,P1,CPU1]: 30 sa_4 + 30 sa_34 + 30 sa_35
   + 30 sa_36 + 30 sa_37 + 30 sa_38 + 30 sa_39 + 30 sa_40 + 30 sa_41
   + 30 sa_42 + 30 sa_43 + 30 sa_44 + 30 sa_45 + 30 sa_46 + 30 sa_47
   + 30 sa_48 + 30 sa_49 + 30 sa_50 + 30 sa_51 + 30 sa_52 + 30 sa_53
   + 30 sa_54 + 30 sa_55 + 30 sa_56 + 30 sa_57 + 30 sa_58 + 30 sa_59
   + 30 sa_60 + 30 sa_61 + 30 sa_62 + 30 sa_63 + 30 sa_64 + 30 sa_65
   + 30 sa_66 + 30 sa_67 + 30 sa_68 + 30 sa_69 + 30 sa_70 + 30 sa_71
   + 30 sa_72 + 30 sa_73 + 30 sa_74 + 30 sa_75 + 30 sa_76 + 30 sa_77
   + 30 sa_78 + 30 sa_79 + 30 sa_80 + 30 sa_81 + 30 sa_82 + 30 sa_83
   + 30 sa_84 + 30 sa_85 + 30 sa_86 + 30 sa_87 + 30 sa_88 + 30 sa_89
   + 30 sa_90 + 30 sa_91 + 30 sa_92 + 30 sa_93 + 30 sa_94 + 30 sa_95
   + 30 sa_96 + 30 sa_97 + 30 sa_98 + 30 sa_99 + 30 sa_100 + 30 sa_101
   + 30 sa_102 + 30 sa_103 + 30 sa_104 + 30 sa_105 + 30 sa_106 + 30 sa_107
   + 30 sa_108 + 30 sa_109 + 30 sa_110 + 30 sa_111 + 30 sa_112 + 30 sa_113
   + 30 sa_114 + 30 sa_115 + 30 sa_116 + 30 sa_117 + 30 sa_118 + 30 sa_119
   + 30 sa_120 + 30 sa_121 + 30 sa_122 + 30 sa_123 + 30 sa_124 + 30 sa_125
   + 30 sa_126 + 30 sa_127 + 30 sa_128 + 30 sa_129 + 30 sa_130 + 30 sa_131
   + 30 sa_132 + 30 sa_133 + 30 sa_134 + 30 sa_135 + 30 sa_136 + 30 sa_137
   + 30 sa_138 + 30 sa_139 + 30 sa_140 + 30 sa_141 + 30 sa_142 + 30 sa_143
   + 30 sa_144 + 30 sa_145 + 30 sa_146 + 30 sa_147 + 30 sa_148 + 30 sa_149
   + 30 sa_150 + 30 sa_151 + 30 sa_152 + 30 sa_153 + 30 sa_154 + 30 sa_155
   + 30 sa_156 + 30 sa_157 + 30 sa_158 + 30 sa_159 + 30 sa_160 + 30 sa_161
   + 30 sa_162 + 30 sa_163 + 30 sa_164 + 30 sa_165 + 30 sa_166 + 30 sa_167
   + 30 sa_168 + 30 sa_169 + 30 sa_170 + 30 sa_171 + 30 sa_172 + 30 sa_173
   + 30 sa_174 + 30 sa_175 + 30 sa_176 + 30 sa_177 + 30 sa_178 + 30 sa_179
   + 30 sa_180 + 30 sa_181 + 30 sa_182 + 30 sa_183 + 30 sa_184 + 30 sa_185
   + 30 sa_186 + 30 sa_187 + 30 sa_188 + 30 sa_189 + 30 sa_190 + 30 sa_191
   + 30 sa_192 + 30 sa_193 + 30 sa_194 + 30 sa_195 + 30 sa_196 + 30 sa_197
   + 30 sa_198 + 30 sa_199 + 30 sa_200 + 30 sa_201 + 30 sa_202 + 30 sa_203
   + 30 sa_204 + 30 sa_205 + 30 sa_206 + 30 sa_207 + 30 sa_208 + 30 sa_209
   + 30 sa_210 + 30 sa_211 + 30 sa_212 + 30 sa_213 + 30 sa_214 + 30 sa_215
   + 30 sa_216 + 30 sa_217 + 30 sa_218 + 30 sa_219 + 30 sa_220 + 30 sa_221
   + 30 sa_222 + 30 sa_223 + 30 sa_224 + 30 sa_225 + 30 sa_226 + 30 sa_227
   + 30 sa_228 + 30 sa_229 + 30 sa_230 + 30 sa_231 + 30 sa_232 + 30 sa_233
   + 30 sa_234 + 30 sa_235 + 30 sa_236 + 30 sa_237 + 30 sa_238 + 30 sa_239
   + 30 sa_240 + 30 sa_241 + 30 sa_242 + 30 sa_243 + 30 sa_244 + 30 sa_245
   + 30 sa_246 + 30 sa_247 + 30 sa_248 + 30 sa_249 + 30 sa_250 + 30 sa_251
   + 30 sa_252 + 30 sa_253 >= 0.625
 con_beta_ps_Tmdkc[4,0,C2,P1,CPU1]: >= 0
 con_beta_ps_Tmdkc[4,1,C1,P1,CPU1]: 18 sa_12 + 30 sa_13 >= 0.3125
 con_beta_ps_Tmdkc[4,1,C2,P1,CPU1]: >= 0
 con_beta_ps_Tmdkc[4,2,C1,P1,CPU1]: 30 sa_0 >= 0.15625
 con_beta_ps_Tmdkc[4,2,C2,P1,CPU1]: >= 0
 con_beta_ps_Tmdkc[4,3,C1,P1,CPU1]: 30 sa_6 >= 0.078125
 con_beta_ps_Tmdkc[4,3,C2,P1,CPU1]: 10 sa_17 + 9 sa_18 >= 0.078125
 con_beta_ps_Tmdkc[4,4,C1,P1,CPU1]: 30 sa_1 >= 0.0390625
 con_beta_ps_Tmdkc[4,4,C2,P1,CPU1]: 10 sa_17 >= 0.0390625
Bounds
End
